p edge 197 0
e 2 1
e 2 3
e 2 4
e 2 5
e 2 6
e 2 9
e 2 10
e 2 14
e 2 16
e 2 17
e 2 21
e 2 30
e 2 33
e 2 44
e 2 49
e 2 50
e 2 52
e 2 61
e 2 74
e 2 87
e 2 95
e 2 101
e 2 124
e 2 125
e 2 137
e 2 148
e 2 167
e 2 177
e 2 197
e 1 3
e 1 4
e 1 5
e 1 6
e 1 9
e 1 10
e 1 14
e 1 16
e 1 17
e 1 21
e 1 30
e 1 33
e 1 44
e 1 49
e 1 50
e 1 52
e 1 61
e 1 74
e 1 87
e 1 95
e 1 101
e 1 124
e 1 125
e 1 137
e 1 148
e 1 167
e 1 177
e 1 197
e 3 4
e 3 5
e 3 6
e 3 9
e 3 10
e 3 14
e 3 16
e 3 17
e 3 21
e 3 30
e 3 33
e 3 44
e 3 49
e 3 50
e 3 52
e 3 61
e 3 74
e 3 87
e 3 95
e 3 101
e 3 124
e 3 125
e 3 137
e 3 148
e 3 167
e 3 177
e 3 197
e 4 5
e 4 6
e 4 9
e 4 10
e 4 14
e 4 16
e 4 17
e 4 21
e 4 30
e 4 33
e 4 44
e 4 49
e 4 50
e 4 52
e 4 61
e 4 74
e 4 87
e 4 95
e 4 101
e 4 124
e 4 125
e 4 137
e 4 148
e 4 167
e 4 177
e 4 197
e 5 6
e 5 9
e 5 10
e 5 14
e 5 16
e 5 17
e 5 21
e 5 30
e 5 33
e 5 44
e 5 49
e 5 50
e 5 52
e 5 61
e 5 74
e 5 87
e 5 95
e 5 101
e 5 124
e 5 125
e 5 137
e 5 148
e 5 167
e 5 177
e 5 197
e 6 9
e 6 10
e 6 14
e 6 16
e 6 17
e 6 21
e 6 30
e 6 33
e 6 44
e 6 49
e 6 50
e 6 52
e 6 61
e 6 74
e 6 87
e 6 95
e 6 101
e 6 124
e 6 125
e 6 137
e 6 148
e 6 167
e 6 177
e 6 197
e 9 10
e 9 14
e 9 16
e 9 17
e 9 21
e 9 30
e 9 33
e 9 44
e 9 49
e 9 50
e 9 52
e 9 61
e 9 74
e 9 87
e 9 95
e 9 101
e 9 124
e 9 125
e 9 137
e 9 148
e 9 167
e 9 177
e 9 197
e 10 14
e 10 16
e 10 17
e 10 21
e 10 30
e 10 33
e 10 44
e 10 49
e 10 50
e 10 52
e 10 61
e 10 74
e 10 87
e 10 95
e 10 101
e 10 124
e 10 125
e 10 137
e 10 148
e 10 167
e 10 177
e 10 197
e 14 16
e 14 17
e 14 21
e 14 30
e 14 33
e 14 44
e 14 49
e 14 50
e 14 52
e 14 61
e 14 74
e 14 87
e 14 95
e 14 101
e 14 124
e 14 125
e 14 137
e 14 148
e 14 167
e 14 177
e 14 197
e 16 17
e 16 21
e 16 30
e 16 33
e 16 44
e 16 49
e 16 50
e 16 52
e 16 61
e 16 74
e 16 87
e 16 95
e 16 101
e 16 124
e 16 125
e 16 137
e 16 148
e 16 167
e 16 177
e 16 197
e 17 21
e 17 30
e 17 33
e 17 44
e 17 49
e 17 50
e 17 52
e 17 61
e 17 74
e 17 87
e 17 95
e 17 101
e 17 124
e 17 125
e 17 137
e 17 148
e 17 167
e 17 177
e 17 197
e 21 30
e 21 33
e 21 44
e 21 49
e 21 50
e 21 52
e 21 61
e 21 74
e 21 87
e 21 95
e 21 101
e 21 124
e 21 125
e 21 137
e 21 148
e 21 167
e 21 177
e 21 197
e 30 33
e 30 44
e 30 49
e 30 50
e 30 52
e 30 61
e 30 74
e 30 87
e 30 95
e 30 101
e 30 124
e 30 125
e 30 137
e 30 148
e 30 167
e 30 177
e 30 197
e 33 44
e 33 49
e 33 50
e 33 52
e 33 61
e 33 74
e 33 87
e 33 95
e 33 101
e 33 124
e 33 125
e 33 137
e 33 148
e 33 167
e 33 177
e 33 197
e 44 49
e 44 50
e 44 52
e 44 61
e 44 74
e 44 87
e 44 95
e 44 101
e 44 124
e 44 125
e 44 137
e 44 148
e 44 167
e 44 177
e 44 197
e 49 50
e 49 52
e 49 61
e 49 74
e 49 87
e 49 95
e 49 101
e 49 124
e 49 125
e 49 137
e 49 148
e 49 167
e 49 177
e 49 197
e 50 52
e 50 61
e 50 74
e 50 87
e 50 95
e 50 101
e 50 124
e 50 125
e 50 137
e 50 148
e 50 167
e 50 177
e 50 197
e 52 61
e 52 74
e 52 87
e 52 95
e 52 101
e 52 124
e 52 125
e 52 137
e 52 148
e 52 167
e 52 177
e 52 197
e 61 74
e 61 87
e 61 95
e 61 101
e 61 124
e 61 125
e 61 137
e 61 148
e 61 167
e 61 177
e 61 197
e 74 87
e 74 95
e 74 101
e 74 124
e 74 125
e 74 137
e 74 148
e 74 167
e 74 177
e 74 197
e 87 95
e 87 101
e 87 124
e 87 125
e 87 137
e 87 148
e 87 167
e 87 177
e 87 197
e 95 101
e 95 124
e 95 125
e 95 137
e 95 148
e 95 167
e 95 177
e 95 197
e 101 124
e 101 125
e 101 137
e 101 148
e 101 167
e 101 177
e 101 197
e 124 125
e 124 137
e 124 148
e 124 167
e 124 177
e 124 197
e 125 137
e 125 148
e 125 167
e 125 177
e 125 197
e 137 148
e 137 167
e 137 177
e 137 197
e 148 167
e 148 177
e 148 197
e 167 177
e 167 197
e 177 197
